95 32 3 65 21 69 10 44 70 86 94 93 83 63 37 1 52 92 24 42 49 43 26 96 50 87 14 23 18 97 56 91 16 19 2 61 98 11 99 59 85 0 72 20 30 5 40 39 84 8 48 66 36 46 89 73 12 17 34 29 81 64 90 76 35 88 71 58 15 4 25 79 54 82 55 31 38 45 6 57 7 41 62 13 33 67 9 74 60 27 22 28 47 80 68 51 77 78 53 75 

